(declare-const a Real)
(declare-const b Real)
(declare-const c Real)
(assert (= (+ a b c) 3))
(assert (> a 0))
(assert (> b 0))
(assert (> c 0))
(assert (not (<= (+ (* (pow (+ (* 2 a (pow b 5)) (* 2 a (pow c 5)) (* 2 (pow a 4) (pow c 2))) -1) (pow (+ (* 2 a b (pow c 5)) (* 2 a c (pow b 5)) (* 2 b (pow a 4) (pow c 2))) 2)) (* -1 (pow a 6) (pow b 2)) (* -1 (pow a 6) (pow c 2)) (* -2 b (pow c 7)) (* -2 c (pow b 7))) 0)))
(check-sat)
(get-model)
(exit)